33,60,95
2
4
5
6
54
9
12
13
14
15
16
17
18
19
20
82,83
22
0,49
23
26
27
28
3,10,24,109,121
1,112
1,34
30
8
32
31,46
35
36
37
40
73,107
41
42
55,73
43
44
45
46
67,78
81,83
48
49
50
40,104
51
20,22
52
53
28,70
57
58
77,81
59
61
63,114
63
62
65
66
69
43,94
88,95
70
72
74
75
76
77
79
80
31,46,71
81
83
84
38,39,56,124
86
87
11,96
46,73
7,81,83
90
91
92
93
47
63,68
97
98
99
100
101
25,103
21
102
83,123
33,60,64
104
105
106
29,85
108
110
111
113
15,105
5,13
114
115
116
117
118
119
9,43
120
122
89
125
126
127
128
